
Gurobi 9.5.2 (linux64, Java) logging started ven 10 feb 2023, 00:31:19

Set parameter Username
Academic license - for non-commercial use only - expires 2023-12-01
Warning: Gurobi version mismatch between Java 9.5.1 and C library 9.5.2
Warning: Gurobi version mismatch between Java 9.5.1 and Jni 9.5.2
Set parameter Presolve to value 0
Gurobi Optimizer version 9.5.2 build v9.5.2rc0 (linux64)
Thread count: 2 physical cores, 4 logical processors, using up to 4 threads
Optimize a model with 357857 rows, 17150 columns and 1257450 nonzeros
Model fingerprint: 0x18db9b05
Variable types: 0 continuous, 17150 integer (17150 binary)
Coefficient statistics:
  Matrix range     [1e+00, 2e+01]
  Objective range  [1e+01, 3e+01]
  Bounds range     [1e+00, 1e+00]
  RHS range        [1e+00, 1e+03]
Variable types: 0 continuous, 17150 integer (17150 binary)

Deterministic concurrent LP optimizer: primal and dual simplex
Showing first log only...


Root simplex log...

Iteration    Objective       Primal Inf.    Dual Inf.      Time
    4321    6.4315446e+04   8.704235e+02   1.085703e+10      5s
    9488    6.4183288e+04   2.196948e+02   1.740531e+09     10s
   13624    6.3085918e+04   8.890848e+00   2.910616e+08     15s
   13988    6.2800000e+04   0.000000e+00   0.000000e+00     16s
Concurrent spin time: 8.72s

Solved with primal simplex

Root relaxation: objective 6.280000e+04, 13988 iterations, 21.73 seconds (7.86 work units)
Total elapsed time = 32.35s
Total elapsed time = 36.43s

    Nodes    |    Current Node    |     Objective Bounds      |     Work
 Expl Unexpl |  Obj  Depth IntInf | Incumbent    BestBd   Gap | It/Node Time

     0     0 62800.0000    0   75          - 62800.0000      -     -   39s
H    0     0                    63667.500000 62800.0000  1.36%     -   44s
H    0     0                    63370.000000 62800.0000  0.90%     -   44s
H    0     0                    63140.000000 62800.0000  0.54%     -   44s
H    0     0                    62880.000000 62800.0000  0.13%     -   45s
     0     0 62800.0000    0   96 62880.0000 62800.0000  0.13%     -   50s
H    0     0                    62850.000000 62800.0000  0.08%     -   51s
H    0     0                    62800.000000 62800.0000  0.00%     -   52s

Cutting planes:
  Gomory: 10
  Cover: 42
  Clique: 72
  MIR: 42
  StrongCG: 7
  Zero half: 1
  RLT: 19

Explored 1 nodes (27129 simplex iterations) in 52.69 seconds (19.89 work units)
Thread count was 4 (of 4 available processors)

Solution count 6: 62800 62850 62880 ... 63667.5

Optimal solution found (tolerance 1.00e-04)
Best objective 6.280000000000e+04, best bound 6.280000000000e+04, gap 0.0000%

Gurobi 9.5.2 (linux64, Java) logging started ven 10 feb 2023, 00:39:55

Set parameter Username
Academic license - for non-commercial use only - expires 2023-12-01
Warning: Gurobi version mismatch between Java 9.5.1 and C library 9.5.2
Warning: Gurobi version mismatch between Java 9.5.1 and Jni 9.5.2
Presolve removed 3800 rows and 0 columns (presolve time = 6s) ...
Presolve removed 3800 rows and 0 columns
Presolve time: 6.36s
Gurobi Optimizer version 9.5.2 build v9.5.2rc0 (linux64)
Thread count: 2 physical cores, 4 logical processors, using up to 4 threads
Optimize a model with 357857 rows, 17150 columns and 1257450 nonzeros
Model fingerprint: 0x18db9b05
Variable types: 0 continuous, 17150 integer (17150 binary)
Coefficient statistics:
  Matrix range     [1e+00, 2e+01]
  Objective range  [1e+01, 3e+01]
  Bounds range     [1e+00, 1e+00]
  RHS range        [1e+00, 1e+03]
Presolve removed 3800 rows and 0 columns (presolve time = 5s) ...
Presolve removed 3800 rows and 0 columns
Presolve time: 5.16s
Presolved: 354057 rows, 17150 columns, 1226390 nonzeros
Variable types: 0 continuous, 17150 integer (17150 binary)

Deterministic concurrent LP optimizer: primal and dual simplex
Showing first log only...


Root simplex log...

Iteration    Objective       Primal Inf.    Dual Inf.      Time
       0      handle free variables                         10s
    4402    6.2800000e+04   0.000000e+00   0.000000e+00     11s
    4402    6.2800000e+04   0.000000e+00   0.000000e+00     11s

Use crossover to convert LP symmetric solution to basic solution...

Root crossover log...

       0 DPushes remaining with DInf 0.0000000e+00                12s

    1329 PPushes remaining with PInf 0.0000000e+00                12s
       0 PPushes remaining with PInf 0.0000000e+00                12s

  Push phase complete: Pinf 0.0000000e+00, Dinf 1.4028778e-12     12s


Root simplex log...

Iteration    Objective       Primal Inf.    Dual Inf.      Time
    5734    6.2800000e+04   0.000000e+00   0.000000e+00     13s
    5734    6.2800000e+04   0.000000e+00   0.000000e+00     13s
Concurrent spin time: 0.03s

Solved with primal simplex

Root relaxation: objective 6.280000e+04, 5734 iterations, 5.64 seconds (1.51 work units)
Total elapsed time = 16.57s
Total elapsed time = 22.41s

    Nodes    |    Current Node    |     Objective Bounds      |     Work
 Expl Unexpl |  Obj  Depth IntInf | Incumbent    BestBd   Gap | It/Node Time

     0     0 62800.0000    0  242          - 62800.0000      -     -   27s
H    0     0                    62970.000000 62800.0000  0.27%     -   31s
H    0     0                    62820.000000 62800.0000  0.03%     -   32s
     0     0 62800.0000    0  809 62820.0000 62800.0000  0.03%     -   45s
H    0     0                    62810.000000 62800.0000  0.02%     -   48s
     0     0 62800.0000    0  806 62810.0000 62800.0000  0.02%     -   48s
     0     0 62800.0000    0    6 62810.0000 62800.0000  0.02%     -   88s
H    0     0                    62800.000000 62800.0000  0.00%     -   90s
     0     0 62800.0000    0    6 62800.0000 62800.0000  0.00%     -   90s

Cutting planes:
  Gomory: 5
  Lift-and-project: 2
  Cover: 336
  Implied bound: 22
  Clique: 1372
  MIR: 450
  StrongCG: 31
  GUB cover: 8
  Zero half: 13
  RLT: 165
  BQP: 40

Explored 1 nodes (41528 simplex iterations) in 90.44 seconds (40.72 work units)
Thread count was 4 (of 4 available processors)

Solution count 4: 62800 62810 62820 62970 

Optimal solution found (tolerance 1.00e-04)
Best objective 6.280000000000e+04, best bound 6.280000000000e+04, gap 0.0000%
Gurobi Optimizer version 9.5.2 build v9.5.2rc0 (linux64)
Thread count: 2 physical cores, 4 logical processors, using up to 4 threads
Optimize a model with 357857 rows, 17150 columns and 1257450 nonzeros
Model fingerprint: 0x18db9b05
Variable types: 0 continuous, 17150 integer (17150 binary)
Coefficient statistics:
  Matrix range     [1e+00, 2e+01]
  Objective range  [1e+01, 3e+01]
  Bounds range     [1e+00, 1e+00]
  RHS range        [1e+00, 1e+03]

Loaded MIP start from previous solve with objective 62800

Presolve removed 3800 rows and 0 columns (presolve time = 5s) ...
Presolve removed 3800 rows and 0 columns
Presolve time: 5.07s
Presolved: 354057 rows, 17150 columns, 1226390 nonzeros
Variable types: 0 continuous, 17150 integer (17150 binary)

Deterministic concurrent LP optimizer: primal and dual simplex
Showing first log only...


Root simplex log...

Iteration    Objective       Primal Inf.    Dual Inf.      Time
       0      handle free variables                          8s
    4402    6.2800000e+04   0.000000e+00   0.000000e+00      8s

Root simplex log...

Iteration    Objective       Primal Inf.    Dual Inf.      Time
    7861    6.1482358e+04   3.341459e+02   5.214799e+09     10s
   13296    6.4690867e+04   9.289194e+01   2.807855e+09     15s
   17101    6.3603802e+04   3.887755e+01   1.159426e+08     20s
   20584    6.2897306e+04   9.786822e+00   3.941026e+07     26s

Gurobi 9.5.2 (linux64, Java) logging started ven 10 feb 2023, 00:43:06

Set parameter Username
Academic license - for non-commercial use only - expires 2023-12-01
Warning: Gurobi version mismatch between Java 9.5.1 and C library 9.5.2
Warning: Gurobi version mismatch between Java 9.5.1 and Jni 9.5.2
Set parameter Presolve to value 1
Presolve removed 4150 rows and 0 columns
Presolve time: 4.71s
Gurobi Optimizer version 9.5.2 build v9.5.2rc0 (linux64)
Thread count: 2 physical cores, 4 logical processors, using up to 4 threads
Optimize a model with 357857 rows, 17150 columns and 1257450 nonzeros
Model fingerprint: 0x18db9b05
Variable types: 0 continuous, 17150 integer (17150 binary)
Coefficient statistics:
  Matrix range     [1e+00, 2e+01]
  Objective range  [1e+01, 3e+01]
  Bounds range     [1e+00, 1e+00]
  RHS range        [1e+00, 1e+03]
Presolve removed 4150 rows and 0 columns
Presolve time: 4.19s
Presolved: 353707 rows, 17150 columns, 1241055 nonzeros
Variable types: 0 continuous, 17150 integer (17150 binary)

Deterministic concurrent LP optimizer: primal and dual simplex
Showing first log only...


Root simplex log...

Iteration    Objective       Primal Inf.    Dual Inf.      Time
       0      handle free variables                          9s
    3166    6.2800000e+04   0.000000e+00   0.000000e+00      9s
    3166    6.2800000e+04   0.000000e+00   0.000000e+00     10s
    3166    6.2800000e+04   0.000000e+00   0.000000e+00     10s

Use crossover to convert LP symmetric solution to basic solution...

Root crossover log...

       0 DPushes remaining with DInf 0.0000000e+00                11s

     840 PPushes remaining with PInf 0.0000000e+00                11s
       0 PPushes remaining with PInf 0.0000000e+00                11s

  Push phase complete: Pinf 0.0000000e+00, Dinf 1.1084467e-12     11s


Root simplex log...

Iteration    Objective       Primal Inf.    Dual Inf.      Time
    4009    6.2800000e+04   0.000000e+00   0.000000e+00     11s
    4009    6.2800000e+04   0.000000e+00   0.000000e+00     11s
Concurrent spin time: 0.03s

Solved with primal simplex

Root relaxation: objective 6.280000e+04, 4009 iterations, 5.01 seconds (1.23 work units)
Total elapsed time = 15.79s

    Nodes    |    Current Node    |     Objective Bounds      |     Work
 Expl Unexpl |  Obj  Depth IntInf | Incumbent    BestBd   Gap | It/Node Time

     0     0 62800.0000    0  126          - 62800.0000      -     -   21s
     0     0 62800.0000    0  390          - 62800.0000      -     -   36s
     0     0 62800.0000    0  399          - 62800.0000      -     -   38s
     0     0 62800.0000    0  226          - 62800.0000      -     -   83s
H    0     0                    63040.000000 62800.0000  0.38%     -   84s
     0     0 62800.0000    0  242 63040.0000 62800.0000  0.38%     -   85s
     0     0 62800.0000    0   82 63040.0000 62800.0000  0.38%     -  100s
H    0     0                    62850.000000 62800.0000  0.08%     -  101s
H    0     0                    62800.000000 62800.0000  0.00%     -  102s
     0     0 62800.0000    0   82 62800.0000 62800.0000  0.00%     -  102s

Cutting planes:
  Gomory: 2
  Cover: 271
  Implied bound: 20
  Clique: 1241
  MIR: 226
  StrongCG: 18
  GUB cover: 24
  Zero half: 13
  RLT: 32
  BQP: 1

Explored 1 nodes (43638 simplex iterations) in 102.09 seconds (44.50 work units)
Thread count was 4 (of 4 available processors)

Solution count 3: 62800 62850 63040 

Optimal solution found (tolerance 1.00e-04)
Best objective 6.280000000000e+04, best bound 6.280000000000e+04, gap 0.0000%

Gurobi 9.5.2 (linux64, Java) logging started ven 10 feb 2023, 00:45:58

Set parameter Username
Academic license - for non-commercial use only - expires 2023-12-01
Warning: Gurobi version mismatch between Java 9.5.1 and C library 9.5.2
Warning: Gurobi version mismatch between Java 9.5.1 and Jni 9.5.2
Set parameter Presolve to value 2
Presolve removed 2600 rows and 0 columns (presolve time = 5s) ...
Presolve removed 3800 rows and 0 columns (presolve time = 10s) ...
Presolve removed 3800 rows and 0 columns
Presolve time: 10.17s
Gurobi Optimizer version 9.5.2 build v9.5.2rc0 (linux64)
Thread count: 2 physical cores, 4 logical processors, using up to 4 threads
Optimize a model with 357857 rows, 17150 columns and 1257450 nonzeros
Model fingerprint: 0x18db9b05
Variable types: 0 continuous, 17150 integer (17150 binary)
Coefficient statistics:
  Matrix range     [1e+00, 2e+01]
  Objective range  [1e+01, 3e+01]
  Bounds range     [1e+00, 1e+00]
  RHS range        [1e+00, 1e+03]
Presolve removed 2600 rows and 0 columns (presolve time = 5s) ...
Presolve removed 7600 rows and 0 columns (presolve time = 10s) ...
Presolve removed 8285 rows and 0 columns (presolve time = 15s) ...
Presolve removed 8285 rows and 0 columns (presolve time = 20s) ...
Presolve removed 8285 rows and 0 columns
Presolve time: 22.28s
Presolved: 349572 rows, 17150 columns, 1444304 nonzeros
Variable types: 0 continuous, 17150 integer (17150 binary)

Deterministic concurrent LP optimizer: primal and dual simplex
Showing first log only...

Root relaxation presolve removed 0 rows and 0 columns (presolve time = 5s) ...
Root relaxation presolve removed 50 rows and 0 columns
Root relaxation presolved: 349522 rows, 17200 columns, 1427554 nonzeros


Root simplex log...

Iteration    Objective       Primal Inf.    Dual Inf.      Time
       0      handle free variables                         33s
    7311    6.2800000e+04   0.000000e+00   0.000000e+00     35s
    7311    6.2800000e+04   0.000000e+00   0.000000e+00     35s
    7311    6.2800000e+04   0.000000e+00   0.000000e+00     35s

Use crossover to convert LP symmetric solution to basic solution...

Root crossover log...

       0 DPushes remaining with DInf 0.0000000e+00                36s

    2618 PPushes remaining with PInf 0.0000000e+00                36s
       0 PPushes remaining with PInf 0.0000000e+00                37s

  Push phase complete: Pinf 0.0000000e+00, Dinf 9.2690300e-12     37s


Root simplex log...

Iteration    Objective       Primal Inf.    Dual Inf.      Time
    9932    6.2800000e+04   0.000000e+00   0.000000e+00     37s
    9932    6.2800000e+04   0.000000e+00   0.000000e+00     38s
Concurrent spin time: 0.05s

Solved with primal simplex

Root relaxation: objective 6.280000e+04, 9932 iterations, 13.20 seconds (6.95 work units)
Total elapsed time = 43.40s
Total elapsed time = 45.46s

    Nodes    |    Current Node    |     Objective Bounds      |     Work
 Expl Unexpl |  Obj  Depth IntInf | Incumbent    BestBd   Gap | It/Node Time

     0     0 62800.0000    0   77          - 62800.0000      -     -   50s
H    0     0                    63040.000000 62800.0000  0.38%     -   57s
     0     0 62800.0000    0   53 63040.0000 62800.0000  0.38%     -   63s
H    0     0                    62905.000000 62800.0000  0.17%     -   65s
H    0     0                    62800.000000 62800.0000  0.00%     -   66s
     0     0 62800.0000    0   53 62800.0000 62800.0000  0.00%     -   66s

Cutting planes:
  Gomory: 2
  Cover: 8
  Implied bound: 2
  MIR: 49
  StrongCG: 2
  GUB cover: 2
  Zero half: 3
  RLT: 3

Explored 1 nodes (21713 simplex iterations) in 66.54 seconds (54.11 work units)
Thread count was 4 (of 4 available processors)

Solution count 3: 62800 62905 63040 

Optimal solution found (tolerance 1.00e-04)
Best objective 6.280000000000e+04, best bound 6.280000000000e+04, gap 0.0000%
